; benchmark generated from python API
(set-info :status unknown)
(declare-fun x_epoch () Int)
(declare-fun y_epoch () Int)
(declare-fun x_plus_epoch () Int)
(declare-fun x_plus_month () Int)
(declare-fun x_plus_year () Int)
(declare-fun x_plus_day () Int)
(assert
 (>= x_epoch (- 36525)))
(assert
 (<= x_epoch 36523))
(assert
 (>= y_epoch (- 36525)))
(assert
 (<= y_epoch 36523))
(assert
 (= x_epoch 7304))
(assert
 (>= x_plus_epoch (- 36525)))
(assert
 (<= x_plus_epoch 36523))
(assert
 (let (($x1954 (= x_plus_month 11)))
 (let (($x2237 (= x_plus_month 9)))
 (let (($x2236 (= x_plus_month 6)))
 (let (($x2051 (= x_plus_month 4)))
 (let ((?x1962 (ite (or $x2051 $x2236 $x2237 $x1954) 30 31)))
 (let (($x2022 (= (mod x_plus_year 400) 0)))
 (let (($x2017 (= (mod x_plus_year 4) 0)))
 (let (($x2023 (or (and $x2017 (and (distinct (mod x_plus_year 100) 0) true)) $x2022)))
 (let (($x2352 (= x_plus_month 2)))
 (let (($x2339 (>= x_plus_day 1)))
 (let (($x2341 (<= x_plus_month 12)))
 (let (($x2340 (>= x_plus_month 1)))
 (let (($x2337 (<= x_plus_year 2100)))
 (let (($x2321 (>= x_plus_year 1900)))
 (and $x2321 $x2337 $x2340 $x2341 $x2339 (<= x_plus_day (ite $x2352 (ite $x2023 29 28) ?x1962))))))))))))))))))
(assert
 (let (($x2022 (= (mod x_plus_year 400) 0)))
 (let (($x2017 (= (mod x_plus_year 4) 0)))
 (let (($x2023 (or (and $x2017 (and (distinct (mod x_plus_year 100) 0) true)) $x2022)))
 (let ((?x2209 (ite (= 2 x_plus_month) (ite $x2023 31 31) (ite (= 1 x_plus_month) (ite $x2023 0 0) 0))))
 (let ((?x611 (ite (= 4 x_plus_month) (ite $x2023 91 90) (ite (= 3 x_plus_month) (ite $x2023 60 59) ?x2209))))
 (let ((?x2026 (ite (= 6 x_plus_month) (ite $x2023 152 151) (ite (= 5 x_plus_month) (ite $x2023 121 120) ?x611))))
 (let ((?x2039 (ite (= 8 x_plus_month) (ite $x2023 213 212) (ite (= 7 x_plus_month) (ite $x2023 182 181) ?x2026))))
 (let ((?x2044 (ite (= 10 x_plus_month) (ite $x2023 274 273) (ite (= 9 x_plus_month) (ite $x2023 244 243) ?x2039))))
 (let ((?x761 (ite (= 12 x_plus_month) (ite $x2023 335 334) (ite (= 11 x_plus_month) (ite $x2023 305 304) ?x2044))))
 (let ((?x2326 (+ (* 365 (- x_plus_year 1)) (div (- x_plus_year 1) 4))))
 (let ((?x2262 (+ (- ?x2326 (div (- x_plus_year 1) 100)) (div (- x_plus_year 1) 400))))
 (= x_plus_epoch (- (+ (+ ?x2262 ?x761) (- x_plus_day 1)) 730179))))))))))))))
(assert
 (let ((?x1016 (+ x_epoch 730179)))
 (let ((?x1028 (mod ?x1016 146097)))
 (let ((?x1114 (div ?x1028 36524)))
 (let ((?x1108 (ite (<= 4 ?x1114) 3 ?x1114)))
 (let ((?x1110 (- ?x1028 (* ?x1108 36524))))
 (let ((?x1112 (mod ?x1110 1461)))
 (let ((?x1115 (div ?x1112 365)))
 (let ((?x1024 (ite (<= 4 ?x1115) 3 ?x1115)))
 (let ((?x1056 (+ (+ (* (div ?x1016 146097) 400) (* ?x1108 100)) (* (div ?x1110 1461) 4))))
 (let ((?x1106 (+ (+ ?x1056 ?x1024) 1)))
 (let (($x939 (or (and (= (mod ?x1106 4) 0) (and (distinct (mod ?x1106 100) 0) true)) (= (mod ?x1106 400) 0))))
 (let ((?x924 (- ?x1112 (* ?x1024 365))))
 (let ((?x1135 (ite $x939 31 31)))
 (let (($x1122 (>= ?x924 ?x1135)))
 (let ((?x1091 (ite $x1122 (+ (- ?x924 ?x1135) 1) (+ (- ?x924 (ite $x939 0 0)) 1))))
 (let ((?x964 (ite $x939 60 59)))
 (let (($x1117 (>= ?x924 ?x964)))
 (let ((?x972 (ite $x939 91 90)))
 (let (($x1121 (>= ?x924 ?x972)))
 (let ((?x1102 (ite $x1121 (+ (- ?x924 ?x972) 1) (ite $x1117 (+ (- ?x924 ?x964) 1) ?x1091))))
 (let ((?x944 (ite $x939 121 120)))
 (let (($x1844 (>= ?x924 ?x944)))
 (let ((?x956 (ite $x939 152 151)))
 (let (($x2405 (>= ?x924 ?x956)))
 (let ((?x1146 (ite $x2405 (+ (- ?x924 ?x956) 1) (ite $x1844 (+ (- ?x924 ?x944) 1) ?x1102))))
 (let ((?x2409 (ite $x939 182 181)))
 (let (($x976 (>= ?x924 ?x2409)))
 (let ((?x2404 (ite $x939 213 212)))
 (let (($x938 (>= ?x924 ?x2404)))
 (let ((?x1849 (ite $x938 (+ (- ?x924 ?x2404) 1) (ite $x976 (+ (- ?x924 ?x2409) 1) ?x1146))))
 (let ((?x1847 (ite $x939 244 243)))
 (let (($x920 (>= ?x924 ?x1847)))
 (let ((?x1915 (ite $x939 274 273)))
 (let (($x940 (>= ?x924 ?x1915)))
 (let ((?x1067 (ite $x940 (+ (- ?x924 ?x1915) 1) (ite $x920 (+ (- ?x924 ?x1847) 1) ?x1849))))
 (let ((?x1125 (ite $x939 305 304)))
 (let (($x1036 (>= ?x924 ?x1125)))
 (let ((?x1845 (ite $x939 335 334)))
 (let (($x1071 (>= ?x924 ?x1845)))
 (let ((?x1069 (ite $x1071 (+ (- ?x924 ?x1845) 1) (ite $x1036 (+ (- ?x924 ?x1125) 1) ?x1067))))
 (let ((?x1012 (+ (* 1 12) 0)))
 (let ((?x2066 (ite $x1844 5 (ite $x1121 4 (ite $x1117 3 (ite $x1122 2 1))))))
 (let ((?x1142 (ite $x920 9 (ite $x938 8 (ite $x976 7 (ite $x2405 6 ?x2066))))))
 (let ((?x1076 (ite $x1071 12 (ite $x1036 11 (ite $x940 10 ?x1142)))))
 (let ((?x2064 (+ ?x1076 ?x1012)))
 (let ((?x2233 (- ?x2064 1)))
 (let ((?x2600 (+ (mod ?x2233 12) 1)))
 (let ((?x2096 (ite (or (= ?x2600 4) (= ?x2600 6) (= ?x2600 9) (= ?x2600 11)) 30 31)))
 (let (($x2080 (and (= (mod (+ ?x1106 (+ 0 (div ?x2233 12))) 4) 0) (and (distinct (mod (+ ?x1106 (+ 0 (div ?x2233 12))) 100) 0) true))))
 (let (($x2147 (or $x2080 (= (mod (+ ?x1106 (+ 0 (div ?x2233 12))) 400) 0))))
 (let ((?x2131 (ite (= ?x2600 2) (ite $x2147 29 28) ?x2096)))
 (let ((?x2128 (ite (> 1 ?x1069) 1 (ite (> ?x1069 ?x2131) ?x2131 ?x1069))))
 (let ((?x2115 (ite (> 1 ?x2128) 1 (ite (> ?x2128 ?x2131) ?x2131 ?x2128))))
 (let ((?x2146 (ite (= 2 ?x2600) (ite $x2147 31 31) (ite (= 1 ?x2600) (ite $x2147 0 0) 0))))
 (let ((?x2222 (ite (= 4 ?x2600) (ite $x2147 91 90) (ite (= 3 ?x2600) (ite $x2147 60 59) ?x2146))))
 (let ((?x2205 (ite (= 6 ?x2600) (ite $x2147 152 151) (ite (= 5 ?x2600) (ite $x2147 121 120) ?x2222))))
 (let ((?x2186 (ite (= 8 ?x2600) (ite $x2147 213 212) (ite (= 7 ?x2600) (ite $x2147 182 181) ?x2205))))
 (let ((?x2170 (ite (= 10 ?x2600) (ite $x2147 274 273) (ite (= 9 ?x2600) (ite $x2147 244 243) ?x2186))))
 (let ((?x2161 (ite (= 12 ?x2600) (ite $x2147 335 334) (ite (= 11 ?x2600) (ite $x2147 305 304) ?x2170))))
 (let ((?x2110 (+ (* 365 (- (+ ?x1106 (+ 0 (div ?x2233 12))) 1)) (div (- (+ ?x1106 (+ 0 (div ?x2233 12))) 1) 4))))
 (let ((?x2125 (+ (- ?x2110 (div (- (+ ?x1106 (+ 0 (div ?x2233 12))) 1) 100)) (div (- (+ ?x1106 (+ 0 (div ?x2233 12))) 1) 400))))
 (let ((?x2201 (+ (+ (- (+ (+ ?x2125 ?x2161) (- ?x2115 1)) 730179) 0) 730179)))
 (let ((?x2218 (mod ?x2201 146097)))
 (let ((?x2220 (div ?x2218 36524)))
 (let ((?x2232 (ite (<= 4 ?x2220) 3 ?x2220)))
 (let ((?x2235 (- ?x2218 (* ?x2232 36524))))
 (let ((?x2354 (mod ?x2235 1461)))
 (let ((?x1990 (div ?x2354 365)))
 (let ((?x2356 (ite (<= 4 ?x1990) 3 ?x1990)))
 (let ((?x1991 (+ (+ (* (div ?x2201 146097) 400) (* ?x2232 100)) (* (div ?x2235 1461) 4))))
 (let ((?x1993 (+ (+ ?x1991 ?x2356) 1)))
 (let ((?x2599 (+ 0 (div ?x2233 12))))
 (let ((?x2068 (+ ?x1106 ?x2599)))
 (let (($x1104 (= 0 0)))
 (let ((?x2306 (ite $x1104 ?x2068 ?x1993)))
 (= x_plus_year ?x2306)))))))))))))))))))))))))))))))))))))))))))))))))))))))))))))))))))))))))))))
(assert
 (let ((?x1016 (+ x_epoch 730179)))
 (let ((?x1028 (mod ?x1016 146097)))
 (let ((?x1114 (div ?x1028 36524)))
 (let ((?x1108 (ite (<= 4 ?x1114) 3 ?x1114)))
 (let ((?x1110 (- ?x1028 (* ?x1108 36524))))
 (let ((?x1112 (mod ?x1110 1461)))
 (let ((?x1115 (div ?x1112 365)))
 (let ((?x1024 (ite (<= 4 ?x1115) 3 ?x1115)))
 (let ((?x1056 (+ (+ (* (div ?x1016 146097) 400) (* ?x1108 100)) (* (div ?x1110 1461) 4))))
 (let ((?x1106 (+ (+ ?x1056 ?x1024) 1)))
 (let (($x939 (or (and (= (mod ?x1106 4) 0) (and (distinct (mod ?x1106 100) 0) true)) (= (mod ?x1106 400) 0))))
 (let ((?x924 (- ?x1112 (* ?x1024 365))))
 (let ((?x1135 (ite $x939 31 31)))
 (let (($x1122 (>= ?x924 ?x1135)))
 (let ((?x1091 (ite $x1122 (+ (- ?x924 ?x1135) 1) (+ (- ?x924 (ite $x939 0 0)) 1))))
 (let ((?x964 (ite $x939 60 59)))
 (let (($x1117 (>= ?x924 ?x964)))
 (let ((?x972 (ite $x939 91 90)))
 (let (($x1121 (>= ?x924 ?x972)))
 (let ((?x1102 (ite $x1121 (+ (- ?x924 ?x972) 1) (ite $x1117 (+ (- ?x924 ?x964) 1) ?x1091))))
 (let ((?x944 (ite $x939 121 120)))
 (let (($x1844 (>= ?x924 ?x944)))
 (let ((?x956 (ite $x939 152 151)))
 (let (($x2405 (>= ?x924 ?x956)))
 (let ((?x1146 (ite $x2405 (+ (- ?x924 ?x956) 1) (ite $x1844 (+ (- ?x924 ?x944) 1) ?x1102))))
 (let ((?x2409 (ite $x939 182 181)))
 (let (($x976 (>= ?x924 ?x2409)))
 (let ((?x2404 (ite $x939 213 212)))
 (let (($x938 (>= ?x924 ?x2404)))
 (let ((?x1849 (ite $x938 (+ (- ?x924 ?x2404) 1) (ite $x976 (+ (- ?x924 ?x2409) 1) ?x1146))))
 (let ((?x1847 (ite $x939 244 243)))
 (let (($x920 (>= ?x924 ?x1847)))
 (let ((?x1915 (ite $x939 274 273)))
 (let (($x940 (>= ?x924 ?x1915)))
 (let ((?x1067 (ite $x940 (+ (- ?x924 ?x1915) 1) (ite $x920 (+ (- ?x924 ?x1847) 1) ?x1849))))
 (let ((?x1125 (ite $x939 305 304)))
 (let (($x1036 (>= ?x924 ?x1125)))
 (let ((?x1845 (ite $x939 335 334)))
 (let (($x1071 (>= ?x924 ?x1845)))
 (let ((?x1069 (ite $x1071 (+ (- ?x924 ?x1845) 1) (ite $x1036 (+ (- ?x924 ?x1125) 1) ?x1067))))
 (let ((?x1012 (+ (* 1 12) 0)))
 (let ((?x2066 (ite $x1844 5 (ite $x1121 4 (ite $x1117 3 (ite $x1122 2 1))))))
 (let ((?x1142 (ite $x920 9 (ite $x938 8 (ite $x976 7 (ite $x2405 6 ?x2066))))))
 (let ((?x1076 (ite $x1071 12 (ite $x1036 11 (ite $x940 10 ?x1142)))))
 (let ((?x2064 (+ ?x1076 ?x1012)))
 (let ((?x2233 (- ?x2064 1)))
 (let ((?x2600 (+ (mod ?x2233 12) 1)))
 (let ((?x2096 (ite (or (= ?x2600 4) (= ?x2600 6) (= ?x2600 9) (= ?x2600 11)) 30 31)))
 (let (($x2080 (and (= (mod (+ ?x1106 (+ 0 (div ?x2233 12))) 4) 0) (and (distinct (mod (+ ?x1106 (+ 0 (div ?x2233 12))) 100) 0) true))))
 (let (($x2147 (or $x2080 (= (mod (+ ?x1106 (+ 0 (div ?x2233 12))) 400) 0))))
 (let ((?x2131 (ite (= ?x2600 2) (ite $x2147 29 28) ?x2096)))
 (let ((?x2128 (ite (> 1 ?x1069) 1 (ite (> ?x1069 ?x2131) ?x2131 ?x1069))))
 (let ((?x2115 (ite (> 1 ?x2128) 1 (ite (> ?x2128 ?x2131) ?x2131 ?x2128))))
 (let ((?x2146 (ite (= 2 ?x2600) (ite $x2147 31 31) (ite (= 1 ?x2600) (ite $x2147 0 0) 0))))
 (let ((?x2222 (ite (= 4 ?x2600) (ite $x2147 91 90) (ite (= 3 ?x2600) (ite $x2147 60 59) ?x2146))))
 (let ((?x2205 (ite (= 6 ?x2600) (ite $x2147 152 151) (ite (= 5 ?x2600) (ite $x2147 121 120) ?x2222))))
 (let ((?x2186 (ite (= 8 ?x2600) (ite $x2147 213 212) (ite (= 7 ?x2600) (ite $x2147 182 181) ?x2205))))
 (let ((?x2170 (ite (= 10 ?x2600) (ite $x2147 274 273) (ite (= 9 ?x2600) (ite $x2147 244 243) ?x2186))))
 (let ((?x2161 (ite (= 12 ?x2600) (ite $x2147 335 334) (ite (= 11 ?x2600) (ite $x2147 305 304) ?x2170))))
 (let ((?x2110 (+ (* 365 (- (+ ?x1106 (+ 0 (div ?x2233 12))) 1)) (div (- (+ ?x1106 (+ 0 (div ?x2233 12))) 1) 4))))
 (let ((?x2125 (+ (- ?x2110 (div (- (+ ?x1106 (+ 0 (div ?x2233 12))) 1) 100)) (div (- (+ ?x1106 (+ 0 (div ?x2233 12))) 1) 400))))
 (let ((?x2201 (+ (+ (- (+ (+ ?x2125 ?x2161) (- ?x2115 1)) 730179) 0) 730179)))
 (let ((?x2218 (mod ?x2201 146097)))
 (let ((?x2220 (div ?x2218 36524)))
 (let ((?x2232 (ite (<= 4 ?x2220) 3 ?x2220)))
 (let ((?x2235 (- ?x2218 (* ?x2232 36524))))
 (let ((?x2354 (mod ?x2235 1461)))
 (let ((?x1990 (div ?x2354 365)))
 (let ((?x2356 (ite (<= 4 ?x1990) 3 ?x1990)))
 (let ((?x1991 (+ (+ (* (div ?x2201 146097) 400) (* ?x2232 100)) (* (div ?x2235 1461) 4))))
 (let ((?x1993 (+ (+ ?x1991 ?x2356) 1)))
 (let (($x2001 (or (and (= (mod ?x1993 4) 0) (and (distinct (mod ?x1993 100) 0) true)) (= (mod ?x1993 400) 0))))
 (let ((?x2003 (ite $x2001 31 31)))
 (let ((?x1806 (- ?x2354 (* ?x2356 365))))
 (let (($x2012 (>= ?x1806 ?x2003)))
 (let ((?x2004 (ite $x2001 60 59)))
 (let (($x2013 (>= ?x1806 ?x2004)))
 (let ((?x2005 (ite $x2001 91 90)))
 (let (($x2015 (>= ?x1806 ?x2005)))
 (let ((?x2006 (ite $x2001 121 120)))
 (let (($x1810 (>= ?x1806 ?x2006)))
 (let ((?x1814 (ite $x1810 5 (ite $x2015 4 (ite $x2013 3 (ite $x2012 2 1))))))
 (let ((?x2007 (ite $x2001 152 151)))
 (let (($x1818 (>= ?x1806 ?x2007)))
 (let ((?x2008 (ite $x2001 182 181)))
 (let (($x1830 (>= ?x1806 ?x2008)))
 (let ((?x1910 (ite $x2001 213 212)))
 (let (($x1842 (>= ?x1806 ?x1910)))
 (let ((?x2009 (ite $x2001 244 243)))
 (let (($x1850 (>= ?x1806 ?x2009)))
 (let ((?x1858 (ite $x1850 9 (ite $x1842 8 (ite $x1830 7 (ite $x1818 6 ?x1814))))))
 (let ((?x1918 (ite $x2001 274 273)))
 (let (($x1862 (>= ?x1806 ?x1918)))
 (let ((?x2010 (ite $x2001 305 304)))
 (let (($x1870 (>= ?x1806 ?x2010)))
 (let ((?x2011 (ite $x2001 335 334)))
 (let (($x1878 (>= ?x1806 ?x2011)))
 (let (($x1104 (= 0 0)))
 (let ((?x2311 (ite $x1104 ?x2600 (ite $x1878 12 (ite $x1870 11 (ite $x1862 10 ?x1858))))))
 (= x_plus_month ?x2311)))))))))))))))))))))))))))))))))))))))))))))))))))))))))))))))))))))))))))))))))))))))))))))))))))))
(assert
 (let ((?x1016 (+ x_epoch 730179)))
 (let ((?x1028 (mod ?x1016 146097)))
 (let ((?x1114 (div ?x1028 36524)))
 (let ((?x1108 (ite (<= 4 ?x1114) 3 ?x1114)))
 (let ((?x1110 (- ?x1028 (* ?x1108 36524))))
 (let ((?x1112 (mod ?x1110 1461)))
 (let ((?x1115 (div ?x1112 365)))
 (let ((?x1024 (ite (<= 4 ?x1115) 3 ?x1115)))
 (let ((?x1056 (+ (+ (* (div ?x1016 146097) 400) (* ?x1108 100)) (* (div ?x1110 1461) 4))))
 (let ((?x1106 (+ (+ ?x1056 ?x1024) 1)))
 (let (($x939 (or (and (= (mod ?x1106 4) 0) (and (distinct (mod ?x1106 100) 0) true)) (= (mod ?x1106 400) 0))))
 (let ((?x924 (- ?x1112 (* ?x1024 365))))
 (let ((?x1135 (ite $x939 31 31)))
 (let (($x1122 (>= ?x924 ?x1135)))
 (let ((?x1091 (ite $x1122 (+ (- ?x924 ?x1135) 1) (+ (- ?x924 (ite $x939 0 0)) 1))))
 (let ((?x964 (ite $x939 60 59)))
 (let (($x1117 (>= ?x924 ?x964)))
 (let ((?x972 (ite $x939 91 90)))
 (let (($x1121 (>= ?x924 ?x972)))
 (let ((?x1102 (ite $x1121 (+ (- ?x924 ?x972) 1) (ite $x1117 (+ (- ?x924 ?x964) 1) ?x1091))))
 (let ((?x944 (ite $x939 121 120)))
 (let (($x1844 (>= ?x924 ?x944)))
 (let ((?x956 (ite $x939 152 151)))
 (let (($x2405 (>= ?x924 ?x956)))
 (let ((?x1146 (ite $x2405 (+ (- ?x924 ?x956) 1) (ite $x1844 (+ (- ?x924 ?x944) 1) ?x1102))))
 (let ((?x2409 (ite $x939 182 181)))
 (let (($x976 (>= ?x924 ?x2409)))
 (let ((?x2404 (ite $x939 213 212)))
 (let (($x938 (>= ?x924 ?x2404)))
 (let ((?x1849 (ite $x938 (+ (- ?x924 ?x2404) 1) (ite $x976 (+ (- ?x924 ?x2409) 1) ?x1146))))
 (let ((?x1847 (ite $x939 244 243)))
 (let (($x920 (>= ?x924 ?x1847)))
 (let ((?x1915 (ite $x939 274 273)))
 (let (($x940 (>= ?x924 ?x1915)))
 (let ((?x1067 (ite $x940 (+ (- ?x924 ?x1915) 1) (ite $x920 (+ (- ?x924 ?x1847) 1) ?x1849))))
 (let ((?x1125 (ite $x939 305 304)))
 (let (($x1036 (>= ?x924 ?x1125)))
 (let ((?x1845 (ite $x939 335 334)))
 (let (($x1071 (>= ?x924 ?x1845)))
 (let ((?x1069 (ite $x1071 (+ (- ?x924 ?x1845) 1) (ite $x1036 (+ (- ?x924 ?x1125) 1) ?x1067))))
 (let ((?x1012 (+ (* 1 12) 0)))
 (let ((?x2066 (ite $x1844 5 (ite $x1121 4 (ite $x1117 3 (ite $x1122 2 1))))))
 (let ((?x1142 (ite $x920 9 (ite $x938 8 (ite $x976 7 (ite $x2405 6 ?x2066))))))
 (let ((?x1076 (ite $x1071 12 (ite $x1036 11 (ite $x940 10 ?x1142)))))
 (let ((?x2064 (+ ?x1076 ?x1012)))
 (let ((?x2233 (- ?x2064 1)))
 (let ((?x2600 (+ (mod ?x2233 12) 1)))
 (let ((?x2096 (ite (or (= ?x2600 4) (= ?x2600 6) (= ?x2600 9) (= ?x2600 11)) 30 31)))
 (let (($x2080 (and (= (mod (+ ?x1106 (+ 0 (div ?x2233 12))) 4) 0) (and (distinct (mod (+ ?x1106 (+ 0 (div ?x2233 12))) 100) 0) true))))
 (let (($x2147 (or $x2080 (= (mod (+ ?x1106 (+ 0 (div ?x2233 12))) 400) 0))))
 (let ((?x2131 (ite (= ?x2600 2) (ite $x2147 29 28) ?x2096)))
 (let ((?x2128 (ite (> 1 ?x1069) 1 (ite (> ?x1069 ?x2131) ?x2131 ?x1069))))
 (let ((?x2115 (ite (> 1 ?x2128) 1 (ite (> ?x2128 ?x2131) ?x2131 ?x2128))))
 (let ((?x2146 (ite (= 2 ?x2600) (ite $x2147 31 31) (ite (= 1 ?x2600) (ite $x2147 0 0) 0))))
 (let ((?x2222 (ite (= 4 ?x2600) (ite $x2147 91 90) (ite (= 3 ?x2600) (ite $x2147 60 59) ?x2146))))
 (let ((?x2205 (ite (= 6 ?x2600) (ite $x2147 152 151) (ite (= 5 ?x2600) (ite $x2147 121 120) ?x2222))))
 (let ((?x2186 (ite (= 8 ?x2600) (ite $x2147 213 212) (ite (= 7 ?x2600) (ite $x2147 182 181) ?x2205))))
 (let ((?x2170 (ite (= 10 ?x2600) (ite $x2147 274 273) (ite (= 9 ?x2600) (ite $x2147 244 243) ?x2186))))
 (let ((?x2161 (ite (= 12 ?x2600) (ite $x2147 335 334) (ite (= 11 ?x2600) (ite $x2147 305 304) ?x2170))))
 (let ((?x2110 (+ (* 365 (- (+ ?x1106 (+ 0 (div ?x2233 12))) 1)) (div (- (+ ?x1106 (+ 0 (div ?x2233 12))) 1) 4))))
 (let ((?x2125 (+ (- ?x2110 (div (- (+ ?x1106 (+ 0 (div ?x2233 12))) 1) 100)) (div (- (+ ?x1106 (+ 0 (div ?x2233 12))) 1) 400))))
 (let ((?x2201 (+ (+ (- (+ (+ ?x2125 ?x2161) (- ?x2115 1)) 730179) 0) 730179)))
 (let ((?x2218 (mod ?x2201 146097)))
 (let ((?x2220 (div ?x2218 36524)))
 (let ((?x2232 (ite (<= 4 ?x2220) 3 ?x2220)))
 (let ((?x2235 (- ?x2218 (* ?x2232 36524))))
 (let ((?x2354 (mod ?x2235 1461)))
 (let ((?x1990 (div ?x2354 365)))
 (let ((?x2356 (ite (<= 4 ?x1990) 3 ?x1990)))
 (let ((?x1991 (+ (+ (* (div ?x2201 146097) 400) (* ?x2232 100)) (* (div ?x2235 1461) 4))))
 (let ((?x1993 (+ (+ ?x1991 ?x2356) 1)))
 (let (($x2001 (or (and (= (mod ?x1993 4) 0) (and (distinct (mod ?x1993 100) 0) true)) (= (mod ?x1993 400) 0))))
 (let ((?x1806 (- ?x2354 (* ?x2356 365))))
 (let ((?x2003 (ite $x2001 31 31)))
 (let (($x2012 (>= ?x1806 ?x2003)))
 (let ((?x1902 (ite $x2012 (+ (- ?x1806 ?x2003) 1) (+ (- ?x1806 (ite $x2001 0 0)) 1))))
 (let ((?x2004 (ite $x2001 60 59)))
 (let (($x2013 (>= ?x1806 ?x2004)))
 (let ((?x2005 (ite $x2001 91 90)))
 (let (($x2015 (>= ?x1806 ?x2005)))
 (let ((?x1938 (ite $x2015 (+ (- ?x1806 ?x2005) 1) (ite $x2013 (+ (- ?x1806 ?x2004) 1) ?x1902))))
 (let ((?x2006 (ite $x2001 121 120)))
 (let (($x1810 (>= ?x1806 ?x2006)))
 (let ((?x2007 (ite $x2001 152 151)))
 (let (($x1818 (>= ?x1806 ?x2007)))
 (let ((?x2275 (ite $x1818 (+ (- ?x1806 ?x2007) 1) (ite $x1810 (+ (- ?x1806 ?x2006) 1) ?x1938))))
 (let ((?x2008 (ite $x2001 182 181)))
 (let (($x1830 (>= ?x1806 ?x2008)))
 (let ((?x1910 (ite $x2001 213 212)))
 (let (($x1842 (>= ?x1806 ?x1910)))
 (let ((?x2280 (ite $x1842 (+ (- ?x1806 ?x1910) 1) (ite $x1830 (+ (- ?x1806 ?x2008) 1) ?x2275))))
 (let ((?x2009 (ite $x2001 244 243)))
 (let (($x1850 (>= ?x1806 ?x2009)))
 (let ((?x1918 (ite $x2001 274 273)))
 (let (($x1862 (>= ?x1806 ?x1918)))
 (let ((?x2291 (ite $x1862 (+ (- ?x1806 ?x1918) 1) (ite $x1850 (+ (- ?x1806 ?x2009) 1) ?x2280))))
 (let ((?x2010 (ite $x2001 305 304)))
 (let (($x1870 (>= ?x1806 ?x2010)))
 (let ((?x2011 (ite $x2001 335 334)))
 (let (($x1878 (>= ?x1806 ?x2011)))
 (let ((?x2305 (ite $x1878 (+ (- ?x1806 ?x2011) 1) (ite $x1870 (+ (- ?x1806 ?x2010) 1) ?x2291))))
 (let (($x1104 (= 0 0)))
 (let ((?x2319 (ite $x1104 ?x2115 ?x2305)))
 (= x_plus_day ?x2319)))))))))))))))))))))))))))))))))))))))))))))))))))))))))))))))))))))))))))))))))))))))))))))))))))))))))
(assert
 (= y_epoch x_plus_epoch))
(assert
 (not (= y_epoch 7669)))
(check-sat)
